(set-logic QF_NRA)
(set-info :source |Benchmarks generated from hycomp (https://es-static.fbk.eu/tools/hycomp/). BMC instances of non-linear hybrid automata taken from: Alessandro Cimatti, Sergio Mover, Stefano Tonetta, A quantifier-free SMT encoding of non-linear hybrid automata, FMCAD 2012 and Alessandro Cimatti, Sergio Mover, Stefano Tonetta, Quantier-free encoding of invariants for Hybrid Systems, Formal Methods in System Design. This instance solves a BMC problem of depth 2 and uses the quantifier free encoding encoding. Contacts: Sergio Mover (mover@fbk.eu), Stefano Tonetta (tonettas@fbk.eu), Alessandro Cimatti (cimatti@fbk.eu).|)
(set-info :smt-lib-version 2.0)
(set-info :category "industrial")
(set-info :status unsat)
;; MathSAT API call trace
;; generated on Mon Mar 19 10:43:07 2012
(declare-fun b.counter.3__AT1 () Bool)
(declare-fun b.EVENT.1__AT0 () Bool)
(declare-fun b.x__AT0 () Real)
(declare-fun b.speed_x__AT1 () Real)
(declare-fun b.time__AT1 () Real)
(declare-fun g__AT0 () Real)
(declare-fun b.y__AT0 () Real)
(declare-fun b.EVENT.0__AT1 () Bool)
(declare-fun b.speed_y__AT1 () Real)
(declare-fun b.delta__AT1 () Real)
(declare-fun b.counter.0__AT0 () Bool)
(declare-fun b.EVENT.1__AT1 () Bool)
(declare-fun b.counter.1__AT0 () Bool)
(declare-fun b.delta__AT0 () Real)
(declare-fun b.EVENT.0__AT0 () Bool)
(declare-fun b.x__AT1 () Real)
(declare-fun b.event_is_timed__AT2 () Bool)
(declare-fun b.speed_y__AT0 () Real)
(declare-fun b.time__AT2 () Real)
(declare-fun b.y__AT2 () Real)
(declare-fun b.counter.3__AT0 () Bool)
(declare-fun b.delta__AT2 () Real)
(declare-fun b.counter.0__AT2 () Bool)
(declare-fun b.x__AT2 () Real)
(declare-fun b.EVENT.0__AT2 () Bool)
(declare-fun b.counter.1__AT2 () Bool)
(declare-fun b.event_is_timed__AT0 () Bool)
(declare-fun b.EVENT.1__AT2 () Bool)
(declare-fun b.counter.2__AT2 () Bool)
(declare-fun b.counter.3__AT2 () Bool)
(declare-fun speed_loss__AT0 () Real)
(declare-fun b.y__AT1 () Real)
(declare-fun b.event_is_timed__AT1 () Bool)
(declare-fun b.speed_x__AT2 () Real)
(declare-fun b.counter.0__AT1 () Bool)
(declare-fun b.speed_x__AT0 () Real)
(declare-fun b.speed_y__AT2 () Real)
(declare-fun b.counter.1__AT1 () Bool)
(declare-fun b.time__AT0 () Real)
(declare-fun b.counter.2__AT0 () Bool)
(declare-fun b.counter.2__AT1 () Bool)
(assert (let ((.def_71 (* (- 1.0) g__AT0)))
(let ((.def_72 (* (/ 1 2) .def_71)))
(let ((.def_80 (* 2.0 .def_72)))
(let ((.def_86 (* (- 1.0) .def_80)))
(let ((.def_443 (* .def_86 b.delta__AT2)))
(let ((.def_444 (<= b.speed_y__AT2 .def_443)))
(let ((.def_442 (<= b.speed_y__AT2 0.0 )))
(let ((.def_445 (and .def_442 .def_444)))
(let ((.def_438 (* .def_80 b.delta__AT2)))
(let ((.def_439 (+ b.speed_y__AT2 .def_438)))
(let ((.def_440 (<= 0.0 .def_439)))
(let ((.def_437 (<= 0.0 b.speed_y__AT2)))
(let ((.def_441 (and .def_437 .def_440)))
(let ((.def_446 (or .def_441 .def_445)))
(let ((.def_432 (* b.speed_y__AT2 b.delta__AT2)))
(let ((.def_430 (* b.delta__AT2 b.delta__AT2)))
(let ((.def_431 (* .def_72 .def_430)))
(let ((.def_433 (+ .def_431 .def_432)))
(let ((.def_434 (+ b.y__AT2 .def_433)))
(let ((.def_435 (<= 0.0 .def_434)))
(let ((.def_421 (<= 0.0 b.y__AT2)))
(let ((.def_436 (and .def_421 .def_435)))
(let ((.def_447 (and .def_436 .def_446)))
(let ((.def_52 (<= g__AT0 10.0 )))
(let ((.def_51 (<= 8.0 g__AT0)))
(let ((.def_53 (and .def_51 .def_52)))
(let ((.def_448 (and .def_53 .def_447)))
(let ((.def_60 (<= speed_loss__AT0 (/ 1 2))))
(let ((.def_57 (<= (/ 1 10) speed_loss__AT0)))
(let ((.def_61 (and .def_57 .def_60)))
(let ((.def_449 (and .def_61 .def_448)))
(let ((.def_149 (not b.counter.0__AT1)))
(let ((.def_137 (not b.counter.1__AT1)))
(let ((.def_425 (and .def_137 .def_149)))
(let ((.def_144 (not b.counter.2__AT1)))
(let ((.def_426 (and .def_144 .def_425)))
(let ((.def_62 (and .def_53 .def_61)))
(let ((.def_422 (and .def_62 .def_421)))
(let ((.def_418 (not b.EVENT.0__AT2)))
(let ((.def_416 (not b.EVENT.1__AT2)))
(let ((.def_419 (or .def_416 .def_418)))
(let ((.def_6 (not b.counter.0__AT2)))
(let ((.def_4 (not b.counter.1__AT2)))
(let ((.def_409 (or .def_4 .def_6)))
(let ((.def_413 (or b.counter.3__AT2 .def_409)))
(let ((.def_410 (or b.counter.2__AT2 .def_409)))
(let ((.def_9 (not b.counter.2__AT2)))
(let ((.def_408 (or .def_6 .def_9)))
(let ((.def_411 (and .def_408 .def_410)))
(let ((.def_330 (not b.counter.3__AT2)))
(let ((.def_412 (or .def_330 .def_411)))
(let ((.def_414 (and .def_412 .def_413)))
(let ((.def_420 (and .def_414 .def_419)))
(let ((.def_423 (and .def_420 .def_422)))
(let ((.def_403 (<= 0.0 b.delta__AT1)))
(let ((.def_247 (not b.EVENT.0__AT1)))
(let ((.def_245 (not b.EVENT.1__AT1)))
(let ((.def_304 (and .def_245 .def_247)))
(let ((.def_305 (not .def_304)))
(let ((.def_404 (or .def_305 .def_403)))
(let ((.def_405 (or b.EVENT.1__AT1 .def_404)))
(let ((.def_352 (= b.counter.0__AT2 b.counter.0__AT1)))
(let ((.def_350 (= b.counter.1__AT2 b.counter.1__AT1)))
(let ((.def_348 (= b.counter.2__AT2 b.counter.2__AT1)))
(let ((.def_347 (= b.counter.3__AT1 b.counter.3__AT2)))
(let ((.def_349 (and .def_347 .def_348)))
(let ((.def_351 (and .def_349 .def_350)))
(let ((.def_353 (and .def_351 .def_352)))
(let ((.def_400 (or .def_305 .def_353)))
(let ((.def_401 (or b.EVENT.1__AT1 .def_400)))
(let ((.def_360 (= b.x__AT1 b.x__AT2)))
(let ((.def_357 (= b.y__AT1 b.y__AT2)))
(let ((.def_394 (and .def_357 .def_360)))
(let ((.def_285 (= b.speed_x__AT1 b.speed_x__AT2)))
(let ((.def_395 (and .def_285 .def_394)))
(let ((.def_346 (= b.speed_y__AT1 b.speed_y__AT2)))
(let ((.def_396 (and .def_346 .def_395)))
(let ((.def_391 (= b.delta__AT1 0.0 )))
(let ((.def_392 (and .def_304 .def_391)))
(let ((.def_393 (not .def_392)))
(let ((.def_397 (or .def_393 .def_396)))
(let ((.def_398 (or b.EVENT.1__AT1 .def_397)))
(let ((.def_371 (= b.time__AT1 b.time__AT2)))
(let ((.def_383 (and .def_360 .def_371)))
(let ((.def_384 (and .def_357 .def_383)))
(let ((.def_385 (and .def_285 .def_384)))
(let ((.def_386 (and .def_346 .def_385)))
(let ((.def_387 (and .def_353 .def_386)))
(let ((.def_388 (or .def_245 .def_387)))
(let ((.def_374 (* (- 1.0) b.time__AT2)))
(let ((.def_377 (+ b.delta__AT1 .def_374)))
(let ((.def_378 (+ b.time__AT1 .def_377)))
(let ((.def_379 (= .def_378 0.0 )))
(let ((.def_380 (or .def_305 .def_379)))
(let ((.def_381 (or b.EVENT.1__AT1 .def_380)))
(let ((.def_372 (or .def_304 .def_371)))
(let ((.def_373 (or b.EVENT.1__AT1 .def_372)))
(let ((.def_382 (and .def_373 .def_381)))
(let ((.def_389 (and .def_382 .def_388)))
(let ((.def_367 (= .def_305 b.event_is_timed__AT2)))
(let ((.def_365 (= b.event_is_timed__AT1 .def_304)))
(let ((.def_368 (and .def_365 .def_367)))
(let ((.def_354 (and .def_346 .def_353)))
(let ((.def_264 (<= 0.0 b.speed_y__AT1)))
(let ((.def_308 (not .def_264)))
(let ((.def_307 (= b.y__AT1 0.0 )))
(let ((.def_309 (and .def_307 .def_308)))
(let ((.def_355 (or .def_309 .def_354)))
(let ((.def_321 (or .def_6 b.counter.0__AT1)))
(let ((.def_320 (or b.counter.0__AT2 .def_149)))
(let ((.def_322 (and .def_320 .def_321)))
(let ((.def_323 (and .def_4 .def_322)))
(let ((.def_324 (or b.counter.1__AT1 .def_323)))
(let ((.def_319 (or b.counter.1__AT2 .def_137)))
(let ((.def_325 (and .def_319 .def_324)))
(let ((.def_338 (and .def_9 .def_325)))
(let ((.def_339 (or b.counter.2__AT1 .def_338)))
(let ((.def_333 (and .def_4 .def_149)))
(let ((.def_334 (or b.counter.1__AT1 .def_333)))
(let ((.def_335 (and .def_319 .def_334)))
(let ((.def_336 (and b.counter.2__AT2 .def_335)))
(let ((.def_337 (or .def_144 .def_336)))
(let ((.def_340 (and .def_337 .def_339)))
(let ((.def_341 (and b.counter.3__AT2 .def_340)))
(let ((.def_342 (or b.counter.3__AT1 .def_341)))
(let ((.def_326 (and b.counter.2__AT2 .def_325)))
(let ((.def_327 (or b.counter.2__AT1 .def_326)))
(let ((.def_315 (or b.counter.1__AT2 b.counter.1__AT1)))
(let ((.def_313 (and .def_4 b.counter.0__AT2)))
(let ((.def_314 (or .def_137 .def_313)))
(let ((.def_316 (and .def_314 .def_315)))
(let ((.def_317 (and .def_9 .def_316)))
(let ((.def_318 (or .def_144 .def_317)))
(let ((.def_328 (and .def_318 .def_327)))
(let ((.def_331 (and .def_328 .def_330)))
(let ((.def_159 (not b.counter.3__AT1)))
(let ((.def_332 (or .def_159 .def_331)))
(let ((.def_343 (and .def_332 .def_342)))
(let ((.def_131 (* (- 1.0) speed_loss__AT0)))
(let ((.def_132 (+ 1.0 .def_131)))
(let ((.def_110 (* (- 1.0) b.speed_y__AT1)))
(let ((.def_311 (* .def_110 .def_132)))
(let ((.def_312 (= b.speed_y__AT2 .def_311)))
(let ((.def_344 (and .def_312 .def_343)))
(let ((.def_310 (not .def_309)))
(let ((.def_345 (or .def_310 .def_344)))
(let ((.def_356 (and .def_345 .def_355)))
(let ((.def_358 (and .def_356 .def_357)))
(let ((.def_359 (and .def_285 .def_358)))
(let ((.def_361 (and .def_359 .def_360)))
(let ((.def_362 (or .def_304 .def_361)))
(let ((.def_363 (or b.EVENT.1__AT1 .def_362)))
(let ((.def_295 (* (- 1.0) b.y__AT2)))
(let ((.def_259 (* b.speed_y__AT1 b.delta__AT1)))
(let ((.def_299 (+ .def_259 .def_295)))
(let ((.def_257 (* b.delta__AT1 b.delta__AT1)))
(let ((.def_258 (* .def_72 .def_257)))
(let ((.def_300 (+ .def_258 .def_299)))
(let ((.def_301 (+ b.y__AT1 .def_300)))
(let ((.def_302 (= .def_301 0.0 )))
(let ((.def_289 (* (- 1.0) b.speed_y__AT2)))
(let ((.def_287 (* .def_71 b.delta__AT1)))
(let ((.def_290 (+ .def_287 .def_289)))
(let ((.def_291 (+ b.speed_y__AT1 .def_290)))
(let ((.def_292 (= .def_291 0.0 )))
(let ((.def_280 (* (- 1.0) b.x__AT2)))
(let ((.def_278 (* b.speed_x__AT1 b.delta__AT1)))
(let ((.def_281 (+ .def_278 .def_280)))
(let ((.def_282 (+ b.x__AT1 .def_281)))
(let ((.def_283 (= .def_282 0.0 )))
(let ((.def_286 (and .def_283 .def_285)))
(let ((.def_293 (and .def_286 .def_292)))
(let ((.def_303 (and .def_293 .def_302)))
(let ((.def_306 (or .def_303 .def_305)))
(let ((.def_364 (and .def_306 .def_363)))
(let ((.def_369 (and .def_364 .def_368)))
(let ((.def_390 (and .def_369 .def_389)))
(let ((.def_399 (and .def_390 .def_398)))
(let ((.def_402 (and .def_399 .def_401)))
(let ((.def_406 (and .def_402 .def_405)))
(let ((.def_407 (and .def_245 .def_406)))
(let ((.def_424 (and .def_407 .def_423)))
(let ((.def_427 (and .def_424 .def_426)))
(let ((.def_270 (* .def_86 b.delta__AT1)))
(let ((.def_271 (<= b.speed_y__AT1 .def_270)))
(let ((.def_269 (<= b.speed_y__AT1 0.0 )))
(let ((.def_272 (and .def_269 .def_271)))
(let ((.def_265 (* .def_80 b.delta__AT1)))
(let ((.def_266 (+ b.speed_y__AT1 .def_265)))
(let ((.def_267 (<= 0.0 .def_266)))
(let ((.def_268 (and .def_264 .def_267)))
(let ((.def_273 (or .def_268 .def_272)))
(let ((.def_260 (+ .def_258 .def_259)))
(let ((.def_261 (+ b.y__AT1 .def_260)))
(let ((.def_262 (<= 0.0 .def_261)))
(let ((.def_250 (<= 0.0 b.y__AT1)))
(let ((.def_263 (and .def_250 .def_262)))
(let ((.def_274 (and .def_263 .def_273)))
(let ((.def_275 (and .def_53 .def_274)))
(let ((.def_276 (and .def_61 .def_275)))
(let ((.def_251 (and .def_62 .def_250)))
(let ((.def_248 (or .def_245 .def_247)))
(let ((.def_238 (or .def_137 .def_149)))
(let ((.def_242 (or b.counter.3__AT1 .def_238)))
(let ((.def_239 (or b.counter.2__AT1 .def_238)))
(let ((.def_237 (or .def_144 .def_149)))
(let ((.def_240 (and .def_237 .def_239)))
(let ((.def_241 (or .def_159 .def_240)))
(let ((.def_243 (and .def_241 .def_242)))
(let ((.def_249 (and .def_243 .def_248)))
(let ((.def_252 (and .def_249 .def_251)))
(let ((.def_232 (<= 0.0 b.delta__AT0)))
(let ((.def_46 (not b.EVENT.0__AT0)))
(let ((.def_44 (not b.EVENT.1__AT0)))
(let ((.def_124 (and .def_44 .def_46)))
(let ((.def_125 (not .def_124)))
(let ((.def_233 (or .def_125 .def_232)))
(let ((.def_234 (or b.EVENT.1__AT0 .def_233)))
(let ((.def_181 (= b.counter.0__AT0 b.counter.0__AT1)))
(let ((.def_179 (= b.counter.1__AT0 b.counter.1__AT1)))
(let ((.def_177 (= b.counter.2__AT0 b.counter.2__AT1)))
(let ((.def_176 (= b.counter.3__AT0 b.counter.3__AT1)))
(let ((.def_178 (and .def_176 .def_177)))
(let ((.def_180 (and .def_178 .def_179)))
(let ((.def_182 (and .def_180 .def_181)))
(let ((.def_229 (or .def_125 .def_182)))
(let ((.def_230 (or b.EVENT.1__AT0 .def_229)))
(let ((.def_189 (= b.x__AT1 b.x__AT0)))
(let ((.def_186 (= b.y__AT0 b.y__AT1)))
(let ((.def_223 (and .def_186 .def_189)))
(let ((.def_106 (= b.speed_x__AT0 b.speed_x__AT1)))
(let ((.def_224 (and .def_106 .def_223)))
(let ((.def_175 (= b.speed_y__AT0 b.speed_y__AT1)))
(let ((.def_225 (and .def_175 .def_224)))
(let ((.def_220 (= b.delta__AT0 0.0 )))
(let ((.def_221 (and .def_124 .def_220)))
(let ((.def_222 (not .def_221)))
(let ((.def_226 (or .def_222 .def_225)))
(let ((.def_227 (or b.EVENT.1__AT0 .def_226)))
(let ((.def_200 (= b.time__AT0 b.time__AT1)))
(let ((.def_212 (and .def_189 .def_200)))
(let ((.def_213 (and .def_186 .def_212)))
(let ((.def_214 (and .def_106 .def_213)))
(let ((.def_215 (and .def_175 .def_214)))
(let ((.def_216 (and .def_182 .def_215)))
(let ((.def_217 (or .def_44 .def_216)))
(let ((.def_203 (* (- 1.0) b.time__AT1)))
(let ((.def_206 (+ b.delta__AT0 .def_203)))
(let ((.def_207 (+ b.time__AT0 .def_206)))
(let ((.def_208 (= .def_207 0.0 )))
(let ((.def_209 (or .def_125 .def_208)))
(let ((.def_210 (or b.EVENT.1__AT0 .def_209)))
(let ((.def_201 (or .def_124 .def_200)))
(let ((.def_202 (or b.EVENT.1__AT0 .def_201)))
(let ((.def_211 (and .def_202 .def_210)))
(let ((.def_218 (and .def_211 .def_217)))
(let ((.def_196 (= .def_125 b.event_is_timed__AT1)))
(let ((.def_194 (= b.event_is_timed__AT0 .def_124)))
(let ((.def_197 (and .def_194 .def_196)))
(let ((.def_183 (and .def_175 .def_182)))
(let ((.def_79 (<= 0.0 b.speed_y__AT0)))
(let ((.def_128 (not .def_79)))
(let ((.def_127 (= b.y__AT0 0.0 )))
(let ((.def_129 (and .def_127 .def_128)))
(let ((.def_184 (or .def_129 .def_183)))
(let ((.def_150 (or b.counter.0__AT0 .def_149)))
(let ((.def_27 (not b.counter.0__AT0)))
(let ((.def_148 (or .def_27 b.counter.0__AT1)))
(let ((.def_151 (and .def_148 .def_150)))
(let ((.def_152 (and .def_137 .def_151)))
(let ((.def_153 (or b.counter.1__AT0 .def_152)))
(let ((.def_25 (not b.counter.1__AT0)))
(let ((.def_147 (or .def_25 b.counter.1__AT1)))
(let ((.def_154 (and .def_147 .def_153)))
(let ((.def_167 (and .def_144 .def_154)))
(let ((.def_168 (or b.counter.2__AT0 .def_167)))
(let ((.def_162 (and .def_27 .def_137)))
(let ((.def_163 (or b.counter.1__AT0 .def_162)))
(let ((.def_164 (and .def_147 .def_163)))
(let ((.def_165 (and b.counter.2__AT1 .def_164)))
(let ((.def_30 (not b.counter.2__AT0)))
(let ((.def_166 (or .def_30 .def_165)))
(let ((.def_169 (and .def_166 .def_168)))
(let ((.def_170 (and b.counter.3__AT1 .def_169)))
(let ((.def_171 (or b.counter.3__AT0 .def_170)))
(let ((.def_155 (and b.counter.2__AT1 .def_154)))
(let ((.def_156 (or b.counter.2__AT0 .def_155)))
(let ((.def_141 (or b.counter.1__AT0 b.counter.1__AT1)))
(let ((.def_139 (and .def_137 b.counter.0__AT1)))
(let ((.def_140 (or .def_25 .def_139)))
(let ((.def_142 (and .def_140 .def_141)))
(let ((.def_145 (and .def_142 .def_144)))
(let ((.def_146 (or .def_30 .def_145)))
(let ((.def_157 (and .def_146 .def_156)))
(let ((.def_160 (and .def_157 .def_159)))
(let ((.def_33 (not b.counter.3__AT0)))
(let ((.def_161 (or .def_33 .def_160)))
(let ((.def_172 (and .def_161 .def_171)))
(let ((.def_133 (* (- 1.0) b.speed_y__AT0)))
(let ((.def_134 (* .def_132 .def_133)))
(let ((.def_135 (= b.speed_y__AT1 .def_134)))
(let ((.def_173 (and .def_135 .def_172)))
(let ((.def_130 (not .def_129)))
(let ((.def_174 (or .def_130 .def_173)))
(let ((.def_185 (and .def_174 .def_184)))
(let ((.def_187 (and .def_185 .def_186)))
(let ((.def_188 (and .def_106 .def_187)))
(let ((.def_190 (and .def_188 .def_189)))
(let ((.def_191 (or .def_124 .def_190)))
(let ((.def_192 (or b.EVENT.1__AT0 .def_191)))
(let ((.def_116 (* (- 1.0) b.y__AT1)))
(let ((.def_74 (* b.speed_y__AT0 b.delta__AT0)))
(let ((.def_119 (+ .def_74 .def_116)))
(let ((.def_69 (* b.delta__AT0 b.delta__AT0)))
(let ((.def_73 (* .def_69 .def_72)))
(let ((.def_120 (+ .def_73 .def_119)))
(let ((.def_121 (+ b.y__AT0 .def_120)))
(let ((.def_122 (= .def_121 0.0 )))
(let ((.def_108 (* b.delta__AT0 .def_71)))
(let ((.def_111 (+ .def_108 .def_110)))
(let ((.def_112 (+ b.speed_y__AT0 .def_111)))
(let ((.def_113 (= .def_112 0.0 )))
(let ((.def_98 (* (- 1.0) b.x__AT1)))
(let ((.def_102 (+ .def_98 b.x__AT0)))
(let ((.def_96 (* b.delta__AT0 b.speed_x__AT0)))
(let ((.def_103 (+ .def_96 .def_102)))
(let ((.def_104 (= .def_103 0.0 )))
(let ((.def_107 (and .def_104 .def_106)))
(let ((.def_114 (and .def_107 .def_113)))
(let ((.def_123 (and .def_114 .def_122)))
(let ((.def_126 (or .def_123 .def_125)))
(let ((.def_193 (and .def_126 .def_192)))
(let ((.def_198 (and .def_193 .def_197)))
(let ((.def_219 (and .def_198 .def_218)))
(let ((.def_228 (and .def_219 .def_227)))
(let ((.def_231 (and .def_228 .def_230)))
(let ((.def_235 (and .def_231 .def_234)))
(let ((.def_236 (and .def_44 .def_235)))
(let ((.def_253 (and .def_236 .def_252)))
(let ((.def_28 (and .def_25 .def_27)))
(let ((.def_31 (and .def_28 .def_30)))
(let ((.def_254 (and .def_31 .def_253)))
(let ((.def_87 (* b.delta__AT0 .def_86)))
(let ((.def_88 (<= b.speed_y__AT0 .def_87)))
(let ((.def_85 (<= b.speed_y__AT0 0.0 )))
(let ((.def_89 (and .def_85 .def_88)))
(let ((.def_81 (* b.delta__AT0 .def_80)))
(let ((.def_82 (+ b.speed_y__AT0 .def_81)))
(let ((.def_83 (<= 0.0 .def_82)))
(let ((.def_84 (and .def_79 .def_83)))
(let ((.def_90 (or .def_84 .def_89)))
(let ((.def_75 (+ .def_73 .def_74)))
(let ((.def_76 (+ b.y__AT0 .def_75)))
(let ((.def_77 (<= 0.0 .def_76)))
(let ((.def_63 (<= 0.0 b.y__AT0)))
(let ((.def_78 (and .def_63 .def_77)))
(let ((.def_91 (and .def_78 .def_90)))
(let ((.def_92 (and .def_53 .def_91)))
(let ((.def_93 (and .def_61 .def_92)))
(let ((.def_64 (and .def_62 .def_63)))
(let ((.def_47 (or .def_44 .def_46)))
(let ((.def_37 (or .def_25 .def_27)))
(let ((.def_41 (or b.counter.3__AT0 .def_37)))
(let ((.def_38 (or b.counter.2__AT0 .def_37)))
(let ((.def_36 (or .def_27 .def_30)))
(let ((.def_39 (and .def_36 .def_38)))
(let ((.def_40 (or .def_33 .def_39)))
(let ((.def_42 (and .def_40 .def_41)))
(let ((.def_48 (and .def_42 .def_47)))
(let ((.def_65 (and .def_48 .def_64)))
(let ((.def_34 (and .def_31 .def_33)))
(let ((.def_22 (= b.speed_y__AT0 0.0 )))
(let ((.def_19 (= b.y__AT0 10.0 )))
(let ((.def_14 (= b.time__AT0 0.0 )))
(let ((.def_16 (and .def_14 b.event_is_timed__AT0)))
(let ((.def_20 (and .def_16 .def_19)))
(let ((.def_23 (and .def_20 .def_22)))
(let ((.def_35 (and .def_23 .def_34)))
(let ((.def_66 (and .def_35 .def_65)))
(let ((.def_7 (and .def_4 .def_6)))
(let ((.def_10 (and .def_7 .def_9)))
(let ((.def_11 (not .def_10)))
(let ((.def_67 (and .def_11 .def_66)))
(let ((.def_94 (and .def_67 .def_93)))
(let ((.def_255 (and .def_94 .def_254)))
(let ((.def_277 (and .def_255 .def_276)))
(let ((.def_428 (and .def_277 .def_427)))
(let ((.def_450 (and .def_428 .def_449)))
.def_450)))))))))))))))))))))))))))))))))))))))))))))))))))))))))))))))))))))))))))))))))))))))))))))))))))))))))))))))))))))))))))))))))))))))))))))))))))))))))))))))))))))))))))))))))))))))))))))))))))))))))))))))))))))))))))))))))))))))))))))))))))))))))))))))))))))))))))))))))))))))))))))))))))))))))))))))))))))))))))))))))))))))))))))))))))))))))))))))))))))))))))))))))))))))))))))))))))))
(check-sat)
(exit)
